\ This file has been generated by DOcplex
\ ENCODING=ISO-8859-1
\Problem name: BMW

Minimize
 obj: x_1_1 + x_3_1 + x_1_4 + x_3_4
Subject To
 c1: z_(2,_2)_0 + z_(2,_2)_1 + z_(2,_2)_2 + z_(2,_2)_3 >= 1
 c2: z_(2,_3)_0 + z_(2,_3)_1 + z_(2,_3)_2 + z_(2,_3)_3 >= 1
 c3: z_(2,_2)_0 + z_(2,_2)_1 + z_(2,_2)_2 + z_(2,_2)_3 - x_1_1 - x_3_1 - x_1_4
     - x_3_4 = 0
 c4: z_(2,_3)_0 + z_(2,_3)_1 + z_(2,_3)_2 + z_(2,_3)_3 - x_1_1 - x_3_1 - x_1_4
     - x_3_4 = 0

Bounds
 0 <= x_1_1 <= 1
 0 <= x_3_1 <= 1
 0 <= x_1_4 <= 1
 0 <= x_3_4 <= 1
 0 <= z_(2,_2)_0 <= 1
 0 <= z_(2,_2)_1 <= 1
 0 <= z_(2,_2)_2 <= 1
 0 <= z_(2,_2)_3 <= 1
 0 <= z_(2,_3)_0 <= 1
 0 <= z_(2,_3)_1 <= 1
 0 <= z_(2,_3)_2 <= 1
 0 <= z_(2,_3)_3 <= 1

Binaries
 x_1_1 x_3_1 x_1_4 x_3_4 z_(2,_2)_0 z_(2,_2)_1 z_(2,_2)_2 z_(2,_2)_3 z_(2,_3)_0
 z_(2,_3)_1 z_(2,_3)_2 z_(2,_3)_3
End
